sat
(:max-memory         18.42
 :memory             18.32
 :nlsat-arith-var    3
 :nlsat-atoms        9
 :nlsat-bool-var     1
 :nlsat-clauses      8
 :nlsat-conflicts    1
 :nlsat-propagations 11
 :nlsat-stages       5
 :num-allocs         50310
 :rlimit-count       962
 :time               0.00
 :total-time         0.01)
